(declare-fun a_ack!41 () (_ BitVec 64))
(declare-fun FPCHECK_FMUL_ACCURACY ((_ FloatingPoint 11 53) (_ BitVec 64)) Bool)
(declare-fun b_ack!40 () (_ BitVec 64))
(declare-fun CF_cos ((_ BitVec 64)) (_ FloatingPoint 11 53))
(assert (fp.lt (fp.abs ((_ to_fp 11 53) a_ack!41)) ((_ to_fp 11 53) #x3f20000000000000)))
(assert (FPCHECK_FMUL_ACCURACY (CF_cos a_ack!41) b_ack!40))
